100
32
27
2
1
23
1
1
5
8
6
2
20
8
5
18
20
23
21
4
10
4
1
1
1
18
18
13
1
4
17
6
17
23
23
2
26
21
21
5
5
22
21
4
22
1
9
24
26
3
21
8
7
2
22
2
1
1
10
5
13
27
1
12
3
12
1
1
13
13
1
7
13
10
22
8
1
20
15
22
1
3
20
3
5
18
2
1
4
2
14
18
1
2
14
1
2
2
15
1
1
2